90
3188
45
0 2
0 4
0 5
0 6
0 7
0 9
0 11
0 12
0 13
0 14
0 15
0 16
0 17
0 18
0 20
0 21
0 22
0 23
0 24
0 25
0 26
0 28
0 29
0 30
0 31
0 32
0 33
0 35
0 36
0 37
0 38
0 39
0 40
0 41
0 43
0 45
0 46
0 47
0 49
0 50
0 51
0 53
0 54
0 55
0 56
0 57
0 59
0 60
0 62
0 63
0 64
0 65
0 66
0 67
0 68
0 69
0 70
0 71
0 72
0 73
0 74
0 75
0 76
0 77
0 78
0 79
0 81
0 82
0 83
0 84
0 85
0 86
0 87
1 2
1 3
1 4
1 5
1 6
1 7
1 8
1 10
1 11
1 15
1 16
1 17
1 18
1 19
1 20
1 22
1 23
1 25
1 26
1 27
1 30
1 31
1 33
1 35
1 36
1 37
1 38
1 39
1 40
1 41
1 42
1 44
1 45
1 46
1 48
1 49
1 51
1 52
1 53
1 54
1 55
1 56
1 57
1 58
1 60
1 61
1 62
1 63
1 64
1 65
1 66
1 67
1 68
1 69
1 70
1 71
1 72
1 75
1 76
1 77
1 78
1 79
1 80
1 83
1 87
1 88
1 89
2 3
2 4
2 5
2 6
2 7
2 9
2 10
2 11
2 12
2 14
2 15
2 16
2 17
2 18
2 19
2 20
2 21
2 22
2 23
2 25
2 27
2 28
2 29
2 30
2 31
2 32
2 34
2 35
2 36
2 37
2 38
2 40
2 41
2 43
2 44
2 45
2 46
2 47
2 48
2 49
2 50
2 51
2 53
2 54
2 55
2 56
2 58
2 59
2 60
2 61
2 62
2 63
2 64
2 65
2 66
2 67
2 68
2 70
2 71
2 72
2 73
2 74
2 75
2 76
2 77
2 78
2 80
2 81
2 84
2 86
2 87
2 88
2 89
3 4
3 5
3 6
3 7
3 8
3 9
3 10
3 11
3 12
3 14
3 15
3 16
3 17
3 19
3 20
3 22
3 23
3 24
3 25
3 26
3 28
3 29
3 30
3 31
3 32
3 33
3 34
3 35
3 37
3 38
3 39
3 40
3 41
3 42
3 43
3 44
3 46
3 47
3 48
3 49
3 50
3 51
3 52
3 53
3 54
3 55
3 56
3 57
3 58
3 59
3 60
3 61
3 62
3 63
3 64
3 66
3 68
3 69
3 70
3 71
3 73
3 74
3 75
3 76
3 79
3 83
3 84
3 85
3 86
3 87
3 89
4 5
4 6
4 7
4 8
4 10
4 11
4 14
4 15
4 16
4 17
4 18
4 19
4 21
4 22
4 23
4 24
4 25
4 26
4 28
4 29
4 30
4 32
4 33
4 34
4 35
4 36
4 39
4 40
4 41
4 42
4 43
4 44
4 46
4 47
4 48
4 50
4 51
4 52
4 53
4 54
4 55
4 57
4 58
4 59
4 60
4 61
4 62
4 63
4 64
4 65
4 66
4 68
4 69
4 70
4 71
4 72
4 74
4 77
4 78
4 79
4 80
4 83
4 84
4 85
4 86
4 87
4 88
4 89
5 6
5 7
5 8
5 9
5 11
5 12
5 13
5 15
5 16
5 17
5 18
5 19
5 20
5 21
5 22
5 23
5 24
5 25
5 27
5 28
5 29
5 30
5 31
5 32
5 33
5 34
5 35
5 37
5 38
5 39
5 40
5 41
5 42
5 43
5 44
5 45
5 47
5 48
5 49
5 50
5 51
5 52
5 53
5 55
5 56
5 57
5 58
5 59
5 60
5 61
5 62
5 63
5 64
5 65
5 67
5 68
5 69
5 70
5 71
5 72
5 73
5 74
5 76
5 77
5 80
5 81
5 82
5 83
5 86
5 88
5 89
6 7
6 9
6 11
6 13
6 14
6 15
6 16
6 17
6 18
6 19
6 20
6 21
6 23
6 25
6 26
6 27
6 28
6 29
6 30
6 34
6 35
6 36
6 37
6 38
6 39
6 41
6 42
6 43
6 45
6 47
6 48
6 49
6 50
6 52
6 55
6 56
6 57
6 59
6 61
6 62
6 63
6 66
6 67
6 68
6 69
6 70
6 71
6 72
6 73
6 74
6 75
6 76
6 77
6 79
6 80
6 82
6 83
6 85
6 86
6 87
6 88
6 89
7 8
7 9
7 10
7 12
7 15
7 17
7 18
7 20
7 21
7 22
7 23
7 24
7 26
7 27
7 28
7 30
7 31
7 32
7 33
7 34
7 35
7 37
7 38
7 39
7 41
7 42
7 44
7 46
7 47
7 48
7 49
7 50
7 51
7 54
7 56
7 57
7 58
7 60
7 61
7 62
7 63
7 64
7 65
7 66
7 67
7 68
7 69
7 70
7 71
7 73
7 74
7 75
7 76
7 77
7 78
7 79
7 80
7 84
7 85
7 86
7 87
7 88
7 89
8 11
8 12
8 13
8 15
8 16
8 19
8 20
8 21
8 22
8 23
8 24
8 25
8 26
8 28
8 29
8 31
8 34
8 35
8 36
8 37
8 38
8 39
8 40
8 41
8 42
8 43
8 44
8 45
8 46
8 48
8 49
8 50
8 51
8 52
8 53
8 54
8 55
8 57
8 58
8 59
8 60
8 61
8 62
8 63
8 64
8 65
8 66
8 68
8 69
8 70
8 72
8 74
8 75
8 76
8 77
8 79
8 80
8 81
8 82
8 84
8 85
8 86
8 87
8 88
9 10
9 11
9 12
9 13
9 14
9 15
9 16
9 17
9 18
9 19
9 20
9 22
9 23
9 25
9 26
9 28
9 29
9 30
9 31
9 32
9 33
9 34
9 35
9 37
9 38
9 39
9 40
9 41
9 42
9 43
9 44
9 45
9 46
9 47
9 48
9 49
9 50
9 51
9 52
9 53
9 54
9 55
9 56
9 57
9 58
9 59
9 60
9 61
9 62
9 63
9 64
9 65
9 66
9 68
9 69
9 70
9 71
9 73
9 74
9 75
9 76
9 77
9 78
9 79
9 80
9 81
9 82
9 84
9 85
9 86
9 87
9 89
10 11
10 12
10 15
10 16
10 17
10 18
10 19
10 20
10 21
10 23
10 24
10 25
10 27
10 29
10 32
10 33
10 34
10 35
10 36
10 39
10 40
10 41
10 42
10 43
10 44
10 45
10 46
10 47
10 48
10 50
10 51
10 52
10 53
10 54
10 55
10 56
10 57
10 58
10 59
10 61
10 62
10 63
10 64
10 66
10 68
10 69
10 72
10 73
10 75
10 76
10 77
10 78
10 79
10 80
10 81
10 82
10 83
10 84
10 85
10 86
10 87
10 88
10 89
11 12
11 14
11 15
11 16
11 17
11 18
11 19
11 20
11 21
11 22
11 23
11 24
11 26
11 27
11 28
11 29
11 30
11 31
11 32
11 33
11 34
11 35
11 37
11 38
11 39
11 40
11 41
11 42
11 43
11 44
11 45
11 47
11 50
11 51
11 52
11 53
11 54
11 55
11 56
11 57
11 58
11 62
11 63
11 64
11 65
11 66
11 67
11 68
11 69
11 70
11 72
11 73
11 74
11 75
11 77
11 79
11 82
11 83
11 84
11 85
11 87
11 89
12 13
12 14
12 15
12 16
12 17
12 18
12 20
12 21
12 24
12 27
12 28
12 29
12 30
12 33
12 34
12 35
12 36
12 38
12 39
12 40
12 41
12 42
12 44
12 45
12 46
12 48
12 51
12 53
12 54
12 56
12 57
12 58
12 60
12 61
12 62
12 63
12 64
12 65
12 66
12 67
12 68
12 69
12 70
12 71
12 72
12 73
12 74
12 75
12 76
12 77
12 79
12 80
12 81
12 82
12 83
12 84
12 85
12 86
12 88
12 89
13 16
13 17
13 19
13 20
13 21
13 22
13 23
13 24
13 25
13 26
13 27
13 28
13 29
13 30
13 31
13 32
13 34
13 35
13 36
13 37
13 38
13 39
13 40
13 41
13 44
13 45
13 46
13 47
13 48
13 49
13 51
13 52
13 53
13 54
13 56
13 58
13 59
13 60
13 61
13 62
13 64
13 66
13 67
13 69
13 70
13 71
13 72
13 73
13 75
13 76
13 77
13 78
13 80
13 81
13 82
13 83
13 84
13 85
13 86
13 87
13 88
13 89
14 17
14 18
14 19
14 20
14 21
14 22
14 23
14 24
14 25
14 26
14 27
14 28
14 29
14 30
14 31
14 32
14 33
14 34
14 36
14 38
14 40
14 41
14 42
14 44
14 45
14 46
14 47
14 48
14 50
14 51
14 52
14 53
14 55
14 56
14 57
14 58
14 59
14 60
14 61
14 62
14 63
14 66
14 67
14 69
14 70
14 72
14 73
14 74
14 75
14 77
14 78
14 80
14 81
14 82
14 83
14 84
14 85
14 86
14 87
14 88
15 16
15 18
15 19
15 20
15 22
15 23
15 25
15 26
15 27
15 29
15 30
15 31
15 32
15 33
15 35
15 38
15 40
15 41
15 42
15 43
15 44
15 45
15 46
15 47
15 49
15 50
15 52
15 53
15 54
15 55
15 58
15 59
15 60
15 61
15 62
15 64
15 65
15 67
15 68
15 69
15 71
15 72
15 73
15 74
15 76
15 77
15 78
15 79
15 80
15 81
15 82
15 83
15 84
15 85
15 86
15 89
16 17
16 19
16 20
16 21
16 22
16 23
16 24
16 25
16 26
16 27
16 29
16 30
16 31
16 32
16 33
16 34
16 35
16 36
16 38
16 40
16 41
16 42
16 43
16 44
16 47
16 48
16 49
16 50
16 51
16 52
16 55
16 56
16 58
16 59
16 61
16 62
16 63
16 64
16 66
16 67
16 68
16 69
16 70
16 71
16 72
16 73
16 74
16 77
16 78
16 79
16 80
16 82
16 83
16 84
16 85
16 86
16 87
16 88
16 89
17 18
17 21
17 22
17 23
17 24
17 25
17 27
17 28
17 29
17 31
17 32
17 33
17 35
17 38
17 39
17 40
17 41
17 42
17 43
17 44
17 45
17 47
17 48
17 49
17 50
17 51
17 52
17 53
17 54
17 56
17 57
17 58
17 60
17 64
17 65
17 66
17 67
17 68
17 69
17 70
17 71
17 73
17 74
17 75
17 76
17 78
17 80
17 81
17 83
17 84
17 85
17 86
17 87
17 88
17 89
18 20
18 21
18 22
18 24
18 25
18 26
18 28
18 30
18 31
18 32
18 33
18 34
18 36
18 37
18 40
18 41
18 43
18 44
18 46
18 47
18 48
18 50
18 51
18 52
18 53
18 54
18 55
18 57
18 58
18 59
18 60
18 61
18 63
18 64
18 65
18 66
18 67
18 68
18 70
18 71
18 73
18 75
18 76
18 77
18 78
18 81
18 82
18 83
18 84
18 87
18 88
18 89
19 20
19 21
19 22
19 23
19 24
19 25
19 27
19 28
19 29
19 30
19 31
19 33
19 34
19 35
19 36
19 38
19 39
19 40
19 41
19 43
19 44
19 45
19 47
19 48
19 49
19 53
19 54
19 55
19 56
19 57
19 58
19 59
19 60
19 61
19 62
19 63
19 65
19 67
19 68
19 69
19 70
19 71
19 73
19 74
19 75
19 76
19 77
19 78
19 79
19 80
19 81
19 82
19 83
19 85
19 86
19 87
19 88
19 89
20 21
20 22
20 23
20 24
20 25
20 26
20 27
20 28
20 29
20 30
20 31
20 32
20 33
20 34
20 35
20 37
20 38
20 39
20 43
20 44
20 45
20 46
20 47
20 48
20 49
20 50
20 52
20 53
20 54
20 55
20 56
20 58
20 59
20 60
20 62
20 64
20 65
20 66
20 67
20 68
20 73
20 74
20 76
20 77
20 78
20 79
20 81
20 82
20 84
20 85
20 86
20 87
20 88
21 22
21 24
21 25
21 26
21 27
21 28
21 30
21 31
21 32
21 33
21 34
21 35
21 36
21 38
21 39
21 40
21 41
21 42
21 43
21 45
21 47
21 48
21 49
21 51
21 52
21 54
21 55
21 56
21 57
21 59
21 60
21 61
21 62
21 63
21 64
21 65
21 66
21 67
21 68
21 69
21 71
21 72
21 74
21 75
21 77
21 78
21 79
21 81
21 82
21 83
21 84
21 85
21 87
21 88
21 89
22 23
22 24
22 25
22 26
22 28
22 30
22 31
22 32
22 33
22 34
22 35
22 36
22 37
22 38
22 39
22 41
22 42
22 44
22 45
22 46
22 49
22 50
22 51
22 52
22 56
22 57
22 58
22 59
22 60
22 61
22 62
22 63
22 64
22 65
22 66
22 68
22 69
22 70
22 71
22 73
22 74
22 75
22 76
22 78
22 79
22 82
22 83
22 84
22 85
22 86
22 87
22 89
23 24
23 25
23 26
23 27
23 29
23 31
23 32
23 34
23 35
23 36
23 37
23 38
23 39
23 40
23 41
23 42
23 45
23 46
23 47
23 48
23 51
23 52
23 53
23 54
23 55
23 56
23 57
23 58
23 59
23 60
23 62
23 64
23 65
23 66
23 67
23 68
23 69
23 70
23 71
23 74
23 76
23 77
23 78
23 79
23 81
23 82
23 83
23 84
23 85
23 86
23 87
23 88
23 89
24 25
24 26
24 28
24 29
24 30
24 32
24 33
24 34
24 38
24 40
24 41
24 42
24 43
24 44
24 45
24 46
24 50
24 51
24 52
24 53
24 54
24 55
24 56
24 58
24 59
24 60
24 63
24 64
24 65
24 66
24 67
24 68
24 69
24 70
24 71
24 72
24 73
24 75
24 76
24 77
24 78
24 79
24 80
24 81
24 82
24 83
24 84
24 85
24 86
24 88
25 26
25 27
25 28
25 29
25 30
25 31
25 32
25 33
25 34
25 36
25 37
25 38
25 39
25 40
25 41
25 42
25 43
25 44
25 45
25 46
25 47
25 48
25 49
25 50
25 51
25 52
25 55
25 56
25 57
25 58
25 59
25 63
25 64
25 65
25 66
25 67
25 68
25 69
25 70
25 72
25 73
25 74
25 75
25 76
25 77
25 78
25 79
25 80
25 81
25 82
25 83
25 84
25 86
25 87
25 88
25 89
26 27
26 29
26 30
26 31
26 32
26 33
26 34
26 35
26 36
26 38
26 39
26 40
26 41
26 43
26 44
26 45
26 46
26 47
26 49
26 50
26 51
26 52
26 57
26 58
26 60
26 61
26 63
26 64
26 65
26 66
26 70
26 71
26 72
26 73
26 74
26 75
26 76
26 77
26 78
26 79
26 80
26 81
26 82
26 83
26 84
26 86
26 87
26 88
26 89
27 28
27 32
27 33
27 34
27 35
27 36
27 37
27 38
27 39
27 40
27 41
27 42
27 43
27 44
27 45
27 46
27 47
27 48
27 49
27 50
27 51
27 52
27 53
27 54
27 55
27 57
27 60
27 61
27 63
27 66
27 68
27 69
27 70
27 71
27 72
27 74
27 76
27 77
27 78
27 79
27 81
27 82
27 83
27 84
27 85
27 86
27 87
27 89
28 29
28 30
28 31
28 32
28 33
28 34
28 35
28 36
28 37
28 38
28 40
28 41
28 42
28 43
28 44
28 45
28 46
28 47
28 48
28 49
28 50
28 51
28 52
28 53
28 55
28 56
28 57
28 58
28 59
28 61
28 62
28 64
28 65
28 66
28 67
28 68
28 69
28 70
28 71
28 72
28 73
28 74
28 75
28 76
28 77
28 78
28 79
28 80
28 81
28 83
28 84
28 85
28 86
28 87
28 89
29 31
29 32
29 33
29 34
29 35
29 36
29 37
29 38
29 40
29 41
29 42
29 45
29 46
29 47
29 48
29 49
29 50
29 51
29 52
29 53
29 55
29 57
29 58
29 59
29 60
29 61
29 62
29 63
29 68
29 69
29 70
29 72
29 73
29 74
29 75
29 76
29 77
29 78
29 79
29 80
29 82
29 83
29 85
29 86
29 87
30 31
30 32
30 33
30 34
30 35
30 37
30 38
30 39
30 40
30 41
30 43
30 44
30 46
30 47
30 48
30 49
30 50
30 52
30 53
30 54
30 55
30 57
30 58
30 59
30 60
30 62
30 63
30 64
30 66
30 67
30 69
30 70
30 71
30 72
30 73
30 74
30 75
30 76
30 77
30 78
30 80
30 82
30 83
30 85
30 86
30 88
30 89
31 32
31 33
31 34
31 36
31 37
31 38
31 39
31 40
31 41
31 42
31 44
31 45
31 46
31 49
31 50
31 51
31 52
31 53
31 54
31 55
31 56
31 57
31 58
31 59
31 61
31 63
31 64
31 65
31 66
31 67
31 68
31 69
31 70
31 71
31 73
31 74
31 75
31 76
31 77
31 78
31 79
31 80
31 81
31 82
31 84
31 85
31 86
31 87
31 88
32 34
32 35
32 36
32 39
32 41
32 44
32 45
32 46
32 47
32 49
32 50
32 52
32 53
32 55
32 56
32 57
32 58
32 59
32 60
32 61
32 62
32 63
32 64
32 65
32 66
32 67
32 68
32 69
32 70
32 72
32 74
32 75
32 76
32 77
32 79
32 80
32 81
32 85
32 86
32 87
32 88
32 89
33 34
33 35
33 37
33 38
33 39
33 40
33 42
33 44
33 46
33 49
33 50
33 51
33 52
33 53
33 54
33 55
33 56
33 57
33 58
33 59
33 60
33 61
33 62
33 63
33 64
33 65
33 66
33 67
33 68
33 69
33 70
33 71
33 75
33 76
33 77
33 78
33 79
33 80
33 81
33 82
33 83
33 84
33 86
33 87
33 88
33 89
34 35
34 36
34 37
34 38
34 39
34 40
34 41
34 42
34 43
34 44
34 45
34 46
34 48
34 49
34 50
34 51
34 52
34 54
34 55
34 56
34 57
34 59
34 60
34 61
34 65
34 66
34 69
34 70
34 71
34 72
34 73
34 76
34 77
34 78
34 79
34 80
34 82
34 83
34 85
34 86
34 87
34 88
34 89
35 36
35 37
35 39
35 41
35 42
35 43
35 44
35 45
35 46
35 47
35 48
35 49
35 50
35 51
35 52
35 53
35 54
35 55
35 56
35 57
35 58
35 60
35 61
35 62
35 63
35 64
35 65
35 68
35 69
35 70
35 72
35 73
35 74
35 75
35 77
35 78
35 79
35 80
35 82
35 83
35 84
35 85
35 86
35 87
35 88
36 37
36 38
36 39
36 41
36 42
36 43
36 45
36 46
36 47
36 50
36 51
36 52
36 53
36 54
36 55
36 56
36 57
36 58
36 59
36 60
36 61
36 62
36 63
36 64
36 65
36 66
36 67
36 68
36 70
36 71
36 72
36 74
36 76
36 78
36 79
36 80
36 81
36 82
36 83
36 84
36 85
36 86
36 87
36 88
36 89
37 38
37 39
37 40
37 41
37 42
37 43
37 44
37 45
37 46
37 48
37 49
37 52
37 53
37 55
37 56
37 57
37 59
37 60
37 62
37 63
37 64
37 65
37 66
37 67
37 68
37 69
37 70
37 71
37 74
37 75
37 77
37 78
37 80
37 81
37 83
37 84
37 86
37 87
37 88
37 89
38 39
38 42
38 44
38 45
38 46
38 47
38 48
38 49
38 50
38 52
38 54
38 55
38 56
38 57
38 58
38 59
38 60
38 62
38 63
38 64
38 65
38 67
38 71
38 72
38 73
38 74
38 75
38 77
38 78
38 81
38 82
38 83
38 84
38 85
38 86
38 88
38 89
39 40
39 42
39 43
39 44
39 45
39 46
39 47
39 48
39 49
39 51
39 53
39 54
39 55
39 56
39 57
39 58
39 59
39 60
39 61
39 62
39 64
39 65
39 66
39 67
39 69
39 70
39 71
39 72
39 73
39 75
39 76
39 77
39 78
39 79
39 81
39 82
39 84
39 85
39 86
39 87
39 88
39 89
40 41
40 42
40 43
40 45
40 46
40 47
40 48
40 49
40 51
40 52
40 53
40 54
40 55
40 56
40 57
40 58
40 59
40 60
40 62
40 64
40 66
40 67
40 70
40 71
40 72
40 73
40 74
40 76
40 78
40 79
40 80
40 81
40 82
40 83
40 84
40 85
40 87
40 88
40 89
41 43
41 44
41 45
41 46
41 47
41 48
41 49
41 50
41 52
41 53
41 54
41 55
41 57
41 58
41 59
41 60
41 61
41 62
41 63
41 66
41 67
41 68
41 69
41 70
41 72
41 73
41 74
41 75
41 76
41 77
41 79
41 80
41 81
41 82
41 83
41 84
41 85
41 86
41 87
41 89
42 43
42 44
42 45
42 46
42 47
42 48
42 49
42 51
42 52
42 53
42 54
42 55
42 56
42 57
42 59
42 61
42 62
42 64
42 65
42 66
42 68
42 70
42 71
42 72
42 76
42 77
42 78
42 79
42 80
42 81
42 82
42 83
42 84
42 85
42 86
42 87
42 89
43 45
43 46
43 47
43 48
43 49
43 50
43 51
43 52
43 54
43 55
43 57
43 58
43 59
43 60
43 61
43 62
43 63
43 64
43 65
43 67
43 68
43 69
43 70
43 72
43 73
43 74
43 75
43 76
43 78
43 80
43 82
43 83
43 84
43 85
43 86
43 87
43 88
43 89
44 45
44 47
44 49
44 51
44 52
44 53
44 55
44 56
44 57
44 58
44 59
44 60
44 61
44 63
44 64
44 65
44 66
44 67
44 69
44 70
44 71
44 72
44 73
44 74
44 76
44 77
44 78
44 79
44 80
44 81
44 83
44 84
44 85
44 86
44 88
44 89
45 46
45 47
45 48
45 49
45 50
45 51
45 52
45 53
45 54
45 55
45 56
45 57
45 58
45 63
45 64
45 65
45 67
45 68
45 70
45 71
45 72
45 73
45 74
45 75
45 81
45 82
45 83
45 85
45 86
45 87
45 88
45 89
46 47
46 48
46 49
46 50
46 52
46 53
46 54
46 55
46 56
46 57
46 59
46 60
46 61
46 62
46 63
46 64
46 65
46 66
46 68
46 69
46 70
46 71
46 72
46 73
46 74
46 75
46 77
46 78
46 79
46 81
46 82
46 83
46 84
46 86
46 88
46 89
47 48
47 49
47 50
47 51
47 52
47 53
47 54
47 55
47 56
47 58
47 59
47 60
47 61
47 64
47 66
47 67
47 68
47 69
47 70
47 71
47 72
47 73
47 74
47 76
47 78
47 79
47 80
47 81
47 82
47 83
47 84
47 85
47 86
47 88
47 89
48 49
48 50
48 51
48 53
48 54
48 55
48 56
48 57
48 59
48 60
48 62
48 63
48 64
48 65
48 66
48 67
48 68
48 69
48 71
48 72
48 73
48 74
48 77
48 78
48 80
48 81
48 82
48 84
48 85
48 86
48 87
48 88
48 89
49 50
49 51
49 53
49 54
49 57
49 58
49 59
49 62
49 64
49 66
49 67
49 68
49 69
49 70
49 72
49 73
49 75
49 76
49 77
49 79
49 81
49 82
49 83
49 85
49 86
49 87
49 88
49 89
50 51
50 52
50 53
50 56
50 57
50 58
50 59
50 60
50 61
50 62
50 63
50 64
50 65
50 66
50 70
50 71
50 72
50 73
50 74
50 75
50 76
50 77
50 78
50 79
50 80
50 81
50 82
50 83
50 85
50 86
50 88
51 52
51 54
51 55
51 59
51 60
51 61
51 62
51 63
51 64
51 65
51 66
51 67
51 68
51 71
51 72
51 74
51 75
51 76
51 77
51 78
51 79
51 80
51 81
51 82
51 83
51 84
51 85
51 86
51 87
51 88
52 53
52 54
52 55
52 56
52 57
52 58
52 59
52 60
52 61
52 62
52 64
52 65
52 66
52 67
52 68
52 69
52 70
52 71
52 72
52 73
52 75
52 76
52 77
52 78
52 79
52 80
52 81
52 82
52 85
52 86
52 89
53 54
53 56
53 57
53 58
53 59
53 60
53 61
53 63
53 64
53 65
53 66
53 67
53 68
53 69
53 70
53 71
53 72
53 73
53 75
53 76
53 77
53 78
53 79
53 80
53 82
53 83
53 85
53 86
53 87
53 88
53 89
54 55
54 56
54 58
54 60
54 61
54 62
54 63
54 64
54 65
54 66
54 70
54 71
54 72
54 73
54 74
54 75
54 77
54 78
54 81
54 83
54 84
54 85
54 87
54 88
54 89
55 56
55 57
55 58
55 59
55 62
55 65
55 66
55 68
55 69
55 70
55 73
55 74
55 75
55 77
55 78
55 79
55 80
55 81
55 82
55 83
55 85
55 86
55 87
55 88
55 89
56 57
56 58
56 59
56 62
56 63
56 64
56 65
56 66
56 67
56 68
56 69
56 70
56 72
56 74
56 77
56 79
56 80
56 81
56 85
56 87
56 88
57 60
57 65
57 66
57 67
57 68
57 71
57 72
57 73
57 74
57 76
57 79
57 80
57 81
57 82
57 84
57 85
57 86
57 87
57 88
58 59
58 60
58 62
58 63
58 64
58 65
58 66
58 67
58 68
58 69
58 70
58 72
58 73
58 76
58 78
58 79
58 80
58 81
58 82
58 83
58 85
58 86
58 87
58 89
59 60
59 61
59 63
59 64
59 65
59 66
59 68
59 69
59 70
59 71
59 72
59 73
59 75
59 78
59 79
59 80
59 81
59 84
59 85
59 86
59 88
59 89
60 61
60 62
60 63
60 64
60 65
60 66
60 68
60 69
60 70
60 71
60 72
60 75
60 77
60 78
60 80
60 81
60 82
60 83
60 84
60 85
60 86
60 87
60 88
60 89
61 62
61 63
61 65
61 66
61 68
61 69
61 70
61 72
61 73
61 74
61 75
61 76
61 77
61 78
61 79
61 80
61 83
61 84
61 86
61 87
62 63
62 64
62 65
62 66
62 67
62 68
62 69
62 70
62 71
62 73
62 74
62 76
62 78
62 79
62 80
62 81
62 82
62 83
62 85
62 87
62 88
62 89
63 64
63 66
63 67
63 68
63 69
63 70
63 71
63 72
63 73
63 75
63 76
63 77
63 78
63 79
63 80
63 81
63 82
63 83
63 84
63 85
63 86
63 87
63 88
63 89
64 65
64 66
64 67
64 68
64 69
64 70
64 71
64 72
64 75
64 76
64 79
64 80
64 81
64 82
64 83
64 84
64 85
64 86
64 87
64 88
64 89
65 66
65 67
65 68
65 69
65 70
65 72
65 73
65 74
65 76
65 77
65 78
65 80
65 82
65 85
65 86
65 87
66 67
66 68
66 69
66 71
66 72
66 73
66 74
66 76
66 77
66 78
66 79
66 80
66 81
66 82
66 83
66 85
66 86
66 87
66 88
66 89
67 68
67 70
67 71
67 72
67 73
67 75
67 77
67 78
67 79
67 80
67 81
67 82
67 84
67 85
67 86
67 87
67 89
68 69
68 70
68 71
68 72
68 73
68 74
68 75
68 76
68 78
68 79
68 81
68 82
68 83
68 84
68 86
68 87
68 88
68 89
69 71
69 72
69 73
69 74
69 75
69 76
69 77
69 78
69 79
69 80
69 81
69 82
69 83
69 85
69 86
69 87
69 88
70 71
70 72
70 73
70 75
70 76
70 77
70 78
70 79
70 80
70 81
70 82
70 83
70 84
70 86
70 87
70 89
71 73
71 74
71 75
71 76
71 77
71 78
71 79
71 80
71 81
71 83
71 85
71 86
71 87
71 88
71 89
72 73
72 75
72 76
72 77
72 79
72 80
72 81
72 83
72 84
72 85
72 86
72 88
73 77
73 78
73 79
73 80
73 82
73 83
73 84
73 86
73 87
73 88
74 75
74 76
74 77
74 78
74 79
74 80
74 81
74 82
74 83
74 84
74 85
74 86
74 87
74 89
75 76
75 77
75 78
75 79
75 81
75 82
75 83
75 84
75 85
75 87
75 88
75 89
76 78
76 79
76 80
76 81
76 82
76 84
76 86
76 88
76 89
77 78
77 80
77 81
77 82
77 83
77 84
77 85
77 86
77 87
77 88
77 89
78 79
78 80
78 81
78 84
78 85
78 86
78 87
78 88
78 89
79 80
79 81
79 82
79 84
79 85
79 86
79 87
79 88
79 89
80 81
80 83
80 84
80 85
80 86
80 87
80 88
80 89
81 83
81 85
81 86
81 87
81 88
81 89
82 83
82 84
82 86
82 87
82 89
83 85
83 86
83 87
83 88
83 89
84 85
84 86
84 88
84 89
85 86
85 87
85 88
85 89
86 87
86 88
86 89
87 89
15 57
32 48
14 16
65 68
77 82
18 73
20 44
55 76
41 46
38 71
2 6
9 59
60 79
19 86
52 84
21 29
34 36
58 83
35 74
50 56
22 45
17 53
11 80
66 69
31 61
24 49
27 62
8 40
26 51
13 75
0 54
4 7
1 39
63 87
23 78
12 25
64 89
37 67
30 33
5 43
70 81
3 85
10 42
28 88
47 72
